Generated by cif2cell 2.1.0. Ag2 C O3 :  Masse, R et al., Acta Crystallographica B (24,1968-38,1982) 35, 1428-1429 (1979).
   4.852000
  1.000000000000000   0.000000000000000   0.000000000000000
  0.000000000000000   1.968878812860676   0.000000000000000
 -0.022944517699501   0.000000000000000   0.670464891893784
   Ag   C
       4   2
Direct
0.210900 0.078100 0.219100
0.210900 0.421900 0.219100
0.789100 0.921900 0.780900
0.789100 0.578100 0.780900
0.255555 0.750000 0.257747
0.744445 0.250000 0.742253