Ba1 Ti1 O3
1.0
   3.9998999999999998    0.0000000000000000    0.0000000000000002
  -0.0000000000000002    3.9998999999999998    0.0000000000000002
   0.0000000000000000    0.0000000000000000    4.0170000000000003
Ba Ti O
1 1 3
direct
   0.0000000000000000    0.0000000000000000    0.0000000000000000 Ba
   0.5000000000000000    0.5000000000000000    0.4820000000000000 Ti
   0.5000000000000000    0.5000000000000000    0.0160000000000000 O
   0.5000000000000000    0.0000000000000000    0.5150000000000000 O
   0.0000000000000000    0.5000000000000000    0.5150000000000000 O
