Generated by cif2cell 2.1.0. Pb C O3 :  Colby, M Y and LaCoste, L J B, Zeitschrift fuer Kristallographie, Kristallgeometrie, Kristallphysik,Kristallchemie (-144,1977) 84, 299-309 (1933).
   5.166000
  1.000000000000000   0.000000000000000   0.000000000000000
  0.000000000000000   1.639179248935346   0.000000000000000
  0.000000000000000   0.000000000000000   1.189701897018970
   C   O
       8   8
Direct
 0.516600  0.455765 -0.035068
-0.016600  1.044235  0.464932
-0.516600  0.544235  1.035068
-0.016600  0.455765 -0.035068
 0.516600  1.044235  0.464932
 1.016600 -0.044235  0.535068
 1.016600  0.544235  1.035068
-0.516600 -0.044235  0.535068
 0.204166  0.755357 -0.035068
 0.295834  0.744643  0.464932
 0.795834  0.244643  1.035068
 0.295834  0.755357 -0.035068
 0.204166  0.744643  0.464932
 0.704166  0.255357  0.535068
 0.704166  0.244643  1.035068
 0.795834  0.255357  0.535068