Generated by cif2cell 2.1.0. Ag2 C O3 :  Masse, R et al., Acta Crystallographica B (24,1968-38,1982) 35, 1428-1429 (1979).
   4.852000
  1.000000000000000   0.000000000000000   0.000000000000000
  0.000000000000000   1.968878812860676   0.000000000000000
 -0.022944517699501   0.000000000000000   0.670464891893784
   O  Ag   C
   6   4   2
Direct
  0.982000000000000   0.250000000000000   0.889000000000000 
  0.018000000000000   0.750000000000000   0.111000000000000 
  0.390000000000000   0.634200000000000   0.334000000000000 
  0.390000000000000   0.865800000000000   0.334000000000000 
  0.610000000000000   0.365800000000000   0.666000000000000 
  0.610000000000000   0.134200000000000   0.666000000000000 
  0.210900000000000   0.078100000000000   0.219100000000000 
  0.210900000000000   0.421900000000000   0.219100000000000 
  0.789100000000000   0.921900000000000   0.780900000000000 
  0.789100000000000   0.578100000000000   0.780900000000000 
  0.270000000000000   0.750000000000000   0.261000000000000 
  0.730000000000000   0.250000000000000   0.739000000000000 
