Generated by cif2cell 2.1.0.  :  G. Vanhoyland et al., Powder Diffraction 16, 224-226 (2001).
   7.966100
  1.000000000000000   0.000000000000000   0.000000000000000
  0.000000000000000   1.155521522451388   0.000000000000000
 -0.192674661160472   0.000000000000000   0.898440968608556
   C   Sr
       12   4
Direct
 0.619543  0.178251  0.870332
 0.380457  0.821749  0.129668
 0.380457  0.678251  0.629668
 0.619543  0.321749  0.370332
 0.619655  0.144126  0.864984
 0.380344  0.855874  0.135016
 0.380344  0.644126  0.635016
 0.619655  0.355874  0.364984
 1.097085  1.039192  0.495075
-0.097085 -0.039192  0.504925
-0.097085  0.539192  1.004925
 1.097085  0.460808 -0.004925
 0.827300  0.826100  0.956800
 0.172700  0.173900  0.043200
 0.172700  0.326100  0.543200
 0.827300  0.673900  0.456800