Generated by cif2cell 2.1.0.  :  G. Vanhoyland et al., Powder Diffraction 16, 224-226 (2001).
   7.966100
  1.000000000000000   0.000000000000000   0.000000000000000
  0.000000000000000   1.155521522451388   0.000000000000000
 -0.192674661160472   0.000000000000000   0.898440968608556
   O
       22   
Direct
 0.677146 -0.010954  0.334148
 0.322854  1.010954  0.665852
 0.322854  0.489046  1.165852
 0.677146  0.510954 -0.165852
 1.296337  0.668959  0.366801
-0.296337  0.331041  0.633199
-0.296337  0.168959  1.133199
 1.296337  0.831041 -0.133199
 0.737966  1.043863  1.226971
 0.262034 -0.043863 -0.226971
 0.262034  0.543863  0.273029
 0.737966  0.456137  0.726971
 0.498532  0.387851  0.818027
 0.501468  0.612149  0.181973
 0.501468  0.887851  0.681973
 0.498532  0.112149  0.318027
 0.261098  0.315421  0.652925
 0.738902  0.684580  0.347075
 0.738902  0.815420  0.847075
 0.261098  0.184580  0.152925
 0.716848  0.049628  0.852621
 0.283152  0.950372  0.147379