Ca2 C2 O6
1.0
   1.8764926440531824    4.1809043421307281   -1.9499643721658284
   4.5827050702869023   -0.0000000000000000   -1.9499643721658284
  -0.0000000000000000   -0.0000000000000000   -6.3600000000000003
Ca C O
2 2 6
direct
   0.2500000000000000    0.2500000000000000    0.2500000000000000 Ca2+
   0.7500000000000000    0.7499999999999999    0.7500000000000000 Ca2+
   0.0000000000000000    0.0000000000000000    0.0000000000000000 C4+
   0.5000000000000000    0.5000000000000000    0.5000000000000000 C4+
   0.7364899999999999    0.2635000000000000    0.0000100000000001 O2-
   0.2635000000000000    1.0000000000000000    0.0000100000000000 O2-
   0.0000000000000000    0.7364900000000000    0.0000100000000000 O2-
   0.7635100000000000    0.2365000000000000    0.4999899999999999 O2-
   0.5000000000000000    0.7635100000000000    0.4999899999999999 O2-
   0.2365000000000000    0.5000000000000000    0.4999899999999999 O2-
